(declare-sort $$unsorted 0)
(declare-fun tptp.op ($$unsorted $$unsorted) $$unsorted)
(assert (forall ((X0 $$unsorted) (X1 $$unsorted)) (= X0 (tptp.op X1 (tptp.op (tptp.op X1 X0) (tptp.op X1 X1))))))
(assert (not (forall ((X0 $$unsorted) (X1 $$unsorted)) (let ((_let_1 (tptp.op X0 X0))) (= X0 (tptp.op _let_1 (tptp.op _let_1 X0)))))))
(set-info :filename Equation910_implies_Equation1629)
(check-sat-assuming ( true ))
